problems/csplib-prob015/SchursLemma-models/noch/O2/lingeling/model_1_2-7-16-solution000001.solution
language Essence 1.3

letting boxes be partition({1, 8}, {2, 5, 6}, {3}, {4, 7}, {9, 10, 12}, {11, 13, 14, 15}, {16})
